NAME          BLANK   
ROWS
 N  OBJROW
 L  R0000000
COLUMNS
    C0000000  OBJROW     -996.         R0000000  553.        
    C0000001  OBJROW     -10.          R0000000  543.        
    C0000002  OBJROW     -664.         R0000000  912.        
    C0000003  OBJROW     -402.         R0000000  77.         
    C0000004  OBJROW     -625.         R0000000  120.        
    C0000005  OBJROW     -408.         R0000000  852.        
    C0000006  OBJROW     -763.         R0000000  911.        
    C0000007  OBJROW     -785.         R0000000  431.        
    C0000008  OBJROW     -633.         R0000000  79.         
    C0000009  OBJROW     -961.         R0000000  12.         
RHS
    RHS       R0000000  14716.      
BOUNDS
 BV BOUND     C0000000  1.          
 BV BOUND     C0000001  1.          
 BV BOUND     C0000002  1.          
 BV BOUND     C0000003  1.          
 BV BOUND     C0000004  1.          
 BV BOUND     C0000005  1.          
 BV BOUND     C0000006  1.          
 BV BOUND     C0000007  1.          
 BV BOUND     C0000008  1.          
 BV BOUND     C0000009  1.          
ENDATA
